c User generated cnf file
p cnf 10 17
1 -2 9 0 
9 -5 9 0 
-8 3 7 0 
-6 5 6 0 
3 -3 8 0 
3 -1 5 0 
-6 4 3 0 
4 9 -3 0 
7 -6 3 0 
-1 8 7 0 
3 10 -6 0 
10 -1 5 0 
10 -5 10 0 
2 -1 9 0 
-2 6 7 0 
-8 5 4 0 
7 8 -2 0 
